; Query 9958 -- Type: InitialValues, Instructions: 427858
(set-option :produce-models true)
(set-logic QF_AUFBV )
(declare-fun A-data () (Array (_ BitVec 32) (_ BitVec 8) ) )
(declare-fun A-data-stat () (Array (_ BitVec 32) (_ BitVec 8) ) )
(declare-fun B-data-stat () (Array (_ BitVec 32) (_ BitVec 8) ) )
(declare-fun const_arr1 () (Array (_ BitVec 32) (_ BitVec 8) ) )
(assert (=  (select const_arr1 (_ bv0 32) ) (_ bv64 8) ) )
(assert (=  (select const_arr1 (_ bv1 32) ) (_ bv6 8) ) )
(assert (=  (select const_arr1 (_ bv2 32) ) (_ bv0 8) ) )
(assert (=  (select const_arr1 (_ bv3 32) ) (_ bv0 8) ) )
(assert (=  (select const_arr1 (_ bv4 32) ) (_ bv171 8) ) )
(assert (=  (select const_arr1 (_ bv5 32) ) (_ bv171 8) ) )
(assert (=  (select const_arr1 (_ bv6 32) ) (_ bv171 8) ) )
(assert (=  (select const_arr1 (_ bv7 32) ) (_ bv171 8) ) )
(assert (=  (select const_arr1 (_ bv8 32) ) (_ bv0 8) ) )
(assert (=  (select const_arr1 (_ bv9 32) ) (_ bv24 8) ) )
(assert (=  (select const_arr1 (_ bv10 32) ) (_ bv99 8) ) )
(assert (=  (select const_arr1 (_ bv11 32) ) (_ bv113 8) ) )
(assert (=  (select const_arr1 (_ bv12 32) ) (_ bv192 8) ) )
(assert (=  (select const_arr1 (_ bv13 32) ) (_ bv85 8) ) )
(assert (=  (select const_arr1 (_ bv14 32) ) (_ bv0 8) ) )
(assert (=  (select const_arr1 (_ bv15 32) ) (_ bv0 8) ) )
(assert (=  (select const_arr1 (_ bv16 32) ) (_ bv64 8) ) )
(assert (=  (select const_arr1 (_ bv17 32) ) (_ bv130 8) ) )
(assert (=  (select const_arr1 (_ bv18 32) ) (_ bv127 8) ) )
(assert (=  (select const_arr1 (_ bv19 32) ) (_ bv113 8) ) )
(assert (=  (select const_arr1 (_ bv20 32) ) (_ bv192 8) ) )
(assert (=  (select const_arr1 (_ bv21 32) ) (_ bv85 8) ) )
(assert (=  (select const_arr1 (_ bv22 32) ) (_ bv0 8) ) )
(assert (=  (select const_arr1 (_ bv23 32) ) (_ bv0 8) ) )
(assert (=  (select const_arr1 (_ bv24 32) ) (_ bv64 8) ) )
(assert (=  (select const_arr1 (_ bv25 32) ) (_ bv6 8) ) )
(assert (=  (select const_arr1 (_ bv26 32) ) (_ bv0 8) ) )
(assert (=  (select const_arr1 (_ bv27 32) ) (_ bv0 8) ) )
(assert (=  (select const_arr1 (_ bv28 32) ) (_ bv171 8) ) )
(assert (=  (select const_arr1 (_ bv29 32) ) (_ bv171 8) ) )
(assert (=  (select const_arr1 (_ bv30 32) ) (_ bv171 8) ) )
(assert (=  (select const_arr1 (_ bv31 32) ) (_ bv171 8) ) )
(assert (=  (select const_arr1 (_ bv32 32) ) (_ bv0 8) ) )
(assert (=  (select const_arr1 (_ bv33 32) ) (_ bv42 8) ) )
(assert (=  (select const_arr1 (_ bv34 32) ) (_ bv119 8) ) )
(assert (=  (select const_arr1 (_ bv35 32) ) (_ bv113 8) ) )
(assert (=  (select const_arr1 (_ bv36 32) ) (_ bv192 8) ) )
(assert (=  (select const_arr1 (_ bv37 32) ) (_ bv85 8) ) )
(assert (=  (select const_arr1 (_ bv38 32) ) (_ bv0 8) ) )
(assert (=  (select const_arr1 (_ bv39 32) ) (_ bv0 8) ) )
(assert (=  (select const_arr1 (_ bv40 32) ) (_ bv160 8) ) )
(assert (=  (select const_arr1 (_ bv41 32) ) (_ bv215 8) ) )
(assert (=  (select const_arr1 (_ bv42 32) ) (_ bv169 8) ) )
(assert (=  (select const_arr1 (_ bv43 32) ) (_ bv113 8) ) )
(assert (=  (select const_arr1 (_ bv44 32) ) (_ bv192 8) ) )
(assert (=  (select const_arr1 (_ bv45 32) ) (_ bv85 8) ) )
(assert (=  (select const_arr1 (_ bv46 32) ) (_ bv0 8) ) )
(assert (=  (select const_arr1 (_ bv47 32) ) (_ bv0 8) ) )
(assert (let ( (?B1 (concat  (select  B-data-stat (_ bv15 32) ) (concat  (select  B-data-stat (_ bv14 32) ) (concat  (select  B-data-stat (_ bv13 32) ) (concat  (select  B-data-stat (_ bv12 32) ) (concat  (select  B-data-stat (_ bv11 32) ) (concat  (select  B-data-stat (_ bv10 32) ) (concat  (select  B-data-stat (_ bv9 32) ) (select  B-data-stat (_ bv8 32) ) ) ) ) ) ) ) ) ) (?B2 (concat  (select  A-data-stat (_ bv15 32) ) (concat  (select  A-data-stat (_ bv14 32) ) (concat  (select  A-data-stat (_ bv13 32) ) (concat  (select  A-data-stat (_ bv12 32) ) (concat  (select  A-data-stat (_ bv11 32) ) (concat  (select  A-data-stat (_ bv10 32) ) (concat  (select  A-data-stat (_ bv9 32) ) (select  A-data-stat (_ bv8 32) ) ) ) ) ) ) ) ) ) ) (let ( (?B4 (ite  (=  (_ bv0 64) ?B2 ) (_ bv0 64) (_ bv94285100210896 64) ) ) (?B3 ((_ extract 31  0)  (bvadd  (_ bv18446649788609340736 64) (ite  (=  (_ bv0 64) ?B1 ) (_ bv0 64) (_ bv94285100210920 64) ) ) ) ) ) (let ( (?B5 (concat  (select  const_arr1 (bvadd  (_ bv7 32) ?B3 ) ) (concat  (select  const_arr1 (bvadd  (_ bv6 32) ?B3 ) ) (concat  (select  const_arr1 (bvadd  (_ bv5 32) ?B3 ) ) (concat  (select  const_arr1 (bvadd  (_ bv4 32) ?B3 ) ) (concat  (select  const_arr1 (bvadd  (_ bv3 32) ?B3 ) ) (concat  (select  const_arr1 (bvadd  (_ bv2 32) ?B3 ) ) (concat  (select  const_arr1 (bvadd  (_ bv1 32) ?B3 ) ) (select  const_arr1 ?B3 ) ) ) ) ) ) ) ) ) (?B6 ((_ extract 31  0)  (bvadd  (_ bv18446649788609340728 64) ?B4 ) ) ) (?B7 ((_ extract 31  0)  (bvadd  (_ bv18446649788609340736 64) ?B4 ) ) ) ) (let ( (?B10 (concat  (select  const_arr1 (bvadd  (_ bv7 32) ?B7 ) ) (concat  (select  const_arr1 (bvadd  (_ bv6 32) ?B7 ) ) (concat  (select  const_arr1 (bvadd  (_ bv5 32) ?B7 ) ) (concat  (select  const_arr1 (bvadd  (_ bv4 32) ?B7 ) ) (concat  (select  const_arr1 (bvadd  (_ bv3 32) ?B7 ) ) (concat  (select  const_arr1 (bvadd  (_ bv2 32) ?B7 ) ) (concat  (select  const_arr1 (bvadd  (_ bv1 32) ?B7 ) ) (select  const_arr1 ?B7 ) ) ) ) ) ) ) ) ) (?B8 (concat  (select  (store  (store  (store  (store  (store  (store  (store  (store  (store  (store  (store  (store  (store  (store  (store  (store  B-data-stat (_ bv48 32) (_ bv64 8) ) (_ bv49 32) (_ bv6 8) ) (_ bv50 32) (_ bv0 8) ) (_ bv51 32) (_ bv0 8) ) (_ bv52 32) (_ bv0 8) ) (_ bv53 32) (_ bv0 8) ) (_ bv54 32) (_ bv0 8) ) (_ bv55 32) (_ bv0 8) ) (_ bv64 32) (_ bv8 8) ) (_ bv65 32) (_ bv0 8) ) (_ bv66 32) (_ bv0 8) ) (_ bv67 32) (_ bv0 8) ) (_ bv68 32) (_ bv0 8) ) (_ bv69 32) (_ bv0 8) ) (_ bv70 32) (_ bv0 8) ) (_ bv71 32) (_ bv0 8) ) ((_ extract 31  0)  (bvadd  (_ bv18446649788680513695 64) ?B5 ) ) ) (concat  (select  (store  (store  (store  (store  (store  (store  (store  (store  (store  (store  (store  (store  (store  (store  (store  (store  B-data-stat (_ bv48 32) (_ bv64 8) ) (_ bv49 32) (_ bv6 8) ) (_ bv50 32) (_ bv0 8) ) (_ bv51 32) (_ bv0 8) ) (_ bv52 32) (_ bv0 8) ) (_ bv53 32) (_ bv0 8) ) (_ bv54 32) (_ bv0 8) ) (_ bv55 32) (_ bv0 8) ) (_ bv64 32) (_ bv8 8) ) (_ bv65 32) (_ bv0 8) ) (_ bv66 32) (_ bv0 8) ) (_ bv67 32) (_ bv0 8) ) (_ bv68 32) (_ bv0 8) ) (_ bv69 32) (_ bv0 8) ) (_ bv70 32) (_ bv0 8) ) (_ bv71 32) (_ bv0 8) ) ((_ extract 31  0)  (bvadd  (_ bv18446649788680513694 64) ?B5 ) ) ) (concat  (select  (store  (store  (store  (store  (store  (store  (store  (store  (store  (store  (store  (store  (store  (store  (store  (store  B-data-stat (_ bv48 32) (_ bv64 8) ) (_ bv49 32) (_ bv6 8) ) (_ bv50 32) (_ bv0 8) ) (_ bv51 32) (_ bv0 8) ) (_ bv52 32) (_ bv0 8) ) (_ bv53 32) (_ bv0 8) ) (_ bv54 32) (_ bv0 8) ) (_ bv55 32) (_ bv0 8) ) (_ bv64 32) (_ bv8 8) ) (_ bv65 32) (_ bv0 8) ) (_ bv66 32) (_ bv0 8) ) (_ bv67 32) (_ bv0 8) ) (_ bv68 32) (_ bv0 8) ) (_ bv69 32) (_ bv0 8) ) (_ bv70 32) (_ bv0 8) ) (_ bv71 32) (_ bv0 8) ) ((_ extract 31  0)  (bvadd  (_ bv18446649788680513693 64) ?B5 ) ) ) (concat  (select  (store  (store  (store  (store  (store  (store  (store  (store  (store  (store  (store  (store  (store  (store  (store  (store  B-data-stat (_ bv48 32) (_ bv64 8) ) (_ bv49 32) (_ bv6 8) ) (_ bv50 32) (_ bv0 8) ) (_ bv51 32) (_ bv0 8) ) (_ bv52 32) (_ bv0 8) ) (_ bv53 32) (_ bv0 8) ) (_ bv54 32) (_ bv0 8) ) (_ bv55 32) (_ bv0 8) ) (_ bv64 32) (_ bv8 8) ) (_ bv65 32) (_ bv0 8) ) (_ bv66 32) (_ bv0 8) ) (_ bv67 32) (_ bv0 8) ) (_ bv68 32) (_ bv0 8) ) (_ bv69 32) (_ bv0 8) ) (_ bv70 32) (_ bv0 8) ) (_ bv71 32) (_ bv0 8) ) ((_ extract 31  0)  (bvadd  (_ bv18446649788680513692 64) ?B5 ) ) ) (concat  (select  (store  (store  (store  (store  (store  (store  (store  (store  (store  (store  (store  (store  (store  (store  (store  (store  B-data-stat (_ bv48 32) (_ bv64 8) ) (_ bv49 32) (_ bv6 8) ) (_ bv50 32) (_ bv0 8) ) (_ bv51 32) (_ bv0 8) ) (_ bv52 32) (_ bv0 8) ) (_ bv53 32) (_ bv0 8) ) (_ bv54 32) (_ bv0 8) ) (_ bv55 32) (_ bv0 8) ) (_ bv64 32) (_ bv8 8) ) (_ bv65 32) (_ bv0 8) ) (_ bv66 32) (_ bv0 8) ) (_ bv67 32) (_ bv0 8) ) (_ bv68 32) (_ bv0 8) ) (_ bv69 32) (_ bv0 8) ) (_ bv70 32) (_ bv0 8) ) (_ bv71 32) (_ bv0 8) ) ((_ extract 31  0)  (bvadd  (_ bv18446649788680513691 64) ?B5 ) ) ) (concat  (select  (store  (store  (store  (store  (store  (store  (store  (store  (store  (store  (store  (store  (store  (store  (store  (store  B-data-stat (_ bv48 32) (_ bv64 8) ) (_ bv49 32) (_ bv6 8) ) (_ bv50 32) (_ bv0 8) ) (_ bv51 32) (_ bv0 8) ) (_ bv52 32) (_ bv0 8) ) (_ bv53 32) (_ bv0 8) ) (_ bv54 32) (_ bv0 8) ) (_ bv55 32) (_ bv0 8) ) (_ bv64 32) (_ bv8 8) ) (_ bv65 32) (_ bv0 8) ) (_ bv66 32) (_ bv0 8) ) (_ bv67 32) (_ bv0 8) ) (_ bv68 32) (_ bv0 8) ) (_ bv69 32) (_ bv0 8) ) (_ bv70 32) (_ bv0 8) ) (_ bv71 32) (_ bv0 8) ) ((_ extract 31  0)  (bvadd  (_ bv18446649788680513690 64) ?B5 ) ) ) (concat  (select  (store  (store  (store  (store  (store  (store  (store  (store  (store  (store  (store  (store  (store  (store  (store  (store  B-data-stat (_ bv48 32) (_ bv64 8) ) (_ bv49 32) (_ bv6 8) ) (_ bv50 32) (_ bv0 8) ) (_ bv51 32) (_ bv0 8) ) (_ bv52 32) (_ bv0 8) ) (_ bv53 32) (_ bv0 8) ) (_ bv54 32) (_ bv0 8) ) (_ bv55 32) (_ bv0 8) ) (_ bv64 32) (_ bv8 8) ) (_ bv65 32) (_ bv0 8) ) (_ bv66 32) (_ bv0 8) ) (_ bv67 32) (_ bv0 8) ) (_ bv68 32) (_ bv0 8) ) (_ bv69 32) (_ bv0 8) ) (_ bv70 32) (_ bv0 8) ) (_ bv71 32) (_ bv0 8) ) ((_ extract 31  0)  (bvadd  (_ bv18446649788680513689 64) ?B5 ) ) ) (select  (store  (store  (store  (store  (store  (store  (store  (store  (store  (store  (store  (store  (store  (store  (store  (store  B-data-stat (_ bv48 32) (_ bv64 8) ) (_ bv49 32) (_ bv6 8) ) (_ bv50 32) (_ bv0 8) ) (_ bv51 32) (_ bv0 8) ) (_ bv52 32) (_ bv0 8) ) (_ bv53 32) (_ bv0 8) ) (_ bv54 32) (_ bv0 8) ) (_ bv55 32) (_ bv0 8) ) (_ bv64 32) (_ bv8 8) ) (_ bv65 32) (_ bv0 8) ) (_ bv66 32) (_ bv0 8) ) (_ bv67 32) (_ bv0 8) ) (_ bv68 32) (_ bv0 8) ) (_ bv69 32) (_ bv0 8) ) (_ bv70 32) (_ bv0 8) ) (_ bv71 32) (_ bv0 8) ) ((_ extract 31  0)  (bvadd  (_ bv18446649788680513688 64) ?B5 ) ) ) ) ) ) ) ) ) ) ) (?B9 (bvand  (concat  (select  (store  (store  (store  (store  (store  (store  (store  (store  (store  (store  (store  (store  (store  (store  (store  (store  B-data-stat (_ bv48 32) (_ bv64 8) ) (_ bv49 32) (_ bv6 8) ) (_ bv50 32) (_ bv0 8) ) (_ bv51 32) (_ bv0 8) ) (_ bv52 32) (_ bv0 8) ) (_ bv53 32) (_ bv0 8) ) (_ bv54 32) (_ bv0 8) ) (_ bv55 32) (_ bv0 8) ) (_ bv64 32) (_ bv8 8) ) (_ bv65 32) (_ bv0 8) ) (_ bv66 32) (_ bv0 8) ) (_ bv67 32) (_ bv0 8) ) (_ bv68 32) (_ bv0 8) ) (_ bv69 32) (_ bv0 8) ) (_ bv70 32) (_ bv0 8) ) (_ bv71 32) (_ bv0 8) ) ((_ extract 31  0)  (bvadd  (_ bv18446649788680513659 64) ?B5 ) ) ) (concat  (select  (store  (store  (store  (store  (store  (store  (store  (store  (store  (store  (store  (store  (store  (store  (store  (store  B-data-stat (_ bv48 32) (_ bv64 8) ) (_ bv49 32) (_ bv6 8) ) (_ bv50 32) (_ bv0 8) ) (_ bv51 32) (_ bv0 8) ) (_ bv52 32) (_ bv0 8) ) (_ bv53 32) (_ bv0 8) ) (_ bv54 32) (_ bv0 8) ) (_ bv55 32) (_ bv0 8) ) (_ bv64 32) (_ bv8 8) ) (_ bv65 32) (_ bv0 8) ) (_ bv66 32) (_ bv0 8) ) (_ bv67 32) (_ bv0 8) ) (_ bv68 32) (_ bv0 8) ) (_ bv69 32) (_ bv0 8) ) (_ bv70 32) (_ bv0 8) ) (_ bv71 32) (_ bv0 8) ) ((_ extract 31  0)  (bvadd  (_ bv18446649788680513658 64) ?B5 ) ) ) (concat  (select  (store  (store  (store  (store  (store  (store  (store  (store  (store  (store  (store  (store  (store  (store  (store  (store  B-data-stat (_ bv48 32) (_ bv64 8) ) (_ bv49 32) (_ bv6 8) ) (_ bv50 32) (_ bv0 8) ) (_ bv51 32) (_ bv0 8) ) (_ bv52 32) (_ bv0 8) ) (_ bv53 32) (_ bv0 8) ) (_ bv54 32) (_ bv0 8) ) (_ bv55 32) (_ bv0 8) ) (_ bv64 32) (_ bv8 8) ) (_ bv65 32) (_ bv0 8) ) (_ bv66 32) (_ bv0 8) ) (_ bv67 32) (_ bv0 8) ) (_ bv68 32) (_ bv0 8) ) (_ bv69 32) (_ bv0 8) ) (_ bv70 32) (_ bv0 8) ) (_ bv71 32) (_ bv0 8) ) ((_ extract 31  0)  (bvadd  (_ bv18446649788680513657 64) ?B5 ) ) ) (select  (store  (store  (store  (store  (store  (store  (store  (store  (store  (store  (store  (store  (store  (store  (store  (store  B-data-stat (_ bv48 32) (_ bv64 8) ) (_ bv49 32) (_ bv6 8) ) (_ bv50 32) (_ bv0 8) ) (_ bv51 32) (_ bv0 8) ) (_ bv52 32) (_ bv0 8) ) (_ bv53 32) (_ bv0 8) ) (_ bv54 32) (_ bv0 8) ) (_ bv55 32) (_ bv0 8) ) (_ bv64 32) (_ bv8 8) ) (_ bv65 32) (_ bv0 8) ) (_ bv66 32) (_ bv0 8) ) (_ bv67 32) (_ bv0 8) ) (_ bv68 32) (_ bv0 8) ) (_ bv69 32) (_ bv0 8) ) (_ bv70 32) (_ bv0 8) ) (_ bv71 32) (_ bv0 8) ) ((_ extract 31  0)  (bvadd  (_ bv18446649788680513656 64) ?B5 ) ) ) ) ) ) (_ bv61440 32) ) ) ) (let ( (?B12 (concat  (select  (store  (store  (store  (store  (store  (store  (store  (store  (store  (store  (store  (store  (store  (store  (store  (store  A-data-stat (_ bv48 32) (_ bv64 8) ) (_ bv49 32) (_ bv6 8) ) (_ bv50 32) (_ bv0 8) ) (_ bv51 32) (_ bv0 8) ) (_ bv52 32) (_ bv0 8) ) (_ bv53 32) (_ bv0 8) ) (_ bv54 32) (_ bv0 8) ) (_ bv55 32) (_ bv0 8) ) (_ bv64 32) (_ bv8 8) ) (_ bv65 32) (_ bv0 8) ) (_ bv66 32) (_ bv0 8) ) (_ bv67 32) (_ bv0 8) ) (_ bv68 32) (_ bv0 8) ) (_ bv69 32) (_ bv0 8) ) (_ bv70 32) (_ bv0 8) ) (_ bv71 32) (_ bv0 8) ) ((_ extract 31  0)  (bvadd  (_ bv18446649788683288063 64) ?B10 ) ) ) (concat  (select  (store  (store  (store  (store  (store  (store  (store  (store  (store  (store  (store  (store  (store  (store  (store  (store  A-data-stat (_ bv48 32) (_ bv64 8) ) (_ bv49 32) (_ bv6 8) ) (_ bv50 32) (_ bv0 8) ) (_ bv51 32) (_ bv0 8) ) (_ bv52 32) (_ bv0 8) ) (_ bv53 32) (_ bv0 8) ) (_ bv54 32) (_ bv0 8) ) (_ bv55 32) (_ bv0 8) ) (_ bv64 32) (_ bv8 8) ) (_ bv65 32) (_ bv0 8) ) (_ bv66 32) (_ bv0 8) ) (_ bv67 32) (_ bv0 8) ) (_ bv68 32) (_ bv0 8) ) (_ bv69 32) (_ bv0 8) ) (_ bv70 32) (_ bv0 8) ) (_ bv71 32) (_ bv0 8) ) ((_ extract 31  0)  (bvadd  (_ bv18446649788683288062 64) ?B10 ) ) ) (concat  (select  (store  (store  (store  (store  (store  (store  (store  (store  (store  (store  (store  (store  (store  (store  (store  (store  A-data-stat (_ bv48 32) (_ bv64 8) ) (_ bv49 32) (_ bv6 8) ) (_ bv50 32) (_ bv0 8) ) (_ bv51 32) (_ bv0 8) ) (_ bv52 32) (_ bv0 8) ) (_ bv53 32) (_ bv0 8) ) (_ bv54 32) (_ bv0 8) ) (_ bv55 32) (_ bv0 8) ) (_ bv64 32) (_ bv8 8) ) (_ bv65 32) (_ bv0 8) ) (_ bv66 32) (_ bv0 8) ) (_ bv67 32) (_ bv0 8) ) (_ bv68 32) (_ bv0 8) ) (_ bv69 32) (_ bv0 8) ) (_ bv70 32) (_ bv0 8) ) (_ bv71 32) (_ bv0 8) ) ((_ extract 31  0)  (bvadd  (_ bv18446649788683288061 64) ?B10 ) ) ) (concat  (select  (store  (store  (store  (store  (store  (store  (store  (store  (store  (store  (store  (store  (store  (store  (store  (store  A-data-stat (_ bv48 32) (_ bv64 8) ) (_ bv49 32) (_ bv6 8) ) (_ bv50 32) (_ bv0 8) ) (_ bv51 32) (_ bv0 8) ) (_ bv52 32) (_ bv0 8) ) (_ bv53 32) (_ bv0 8) ) (_ bv54 32) (_ bv0 8) ) (_ bv55 32) (_ bv0 8) ) (_ bv64 32) (_ bv8 8) ) (_ bv65 32) (_ bv0 8) ) (_ bv66 32) (_ bv0 8) ) (_ bv67 32) (_ bv0 8) ) (_ bv68 32) (_ bv0 8) ) (_ bv69 32) (_ bv0 8) ) (_ bv70 32) (_ bv0 8) ) (_ bv71 32) (_ bv0 8) ) ((_ extract 31  0)  (bvadd  (_ bv18446649788683288060 64) ?B10 ) ) ) (concat  (select  (store  (store  (store  (store  (store  (store  (store  (store  (store  (store  (store  (store  (store  (store  (store  (store  A-data-stat (_ bv48 32) (_ bv64 8) ) (_ bv49 32) (_ bv6 8) ) (_ bv50 32) (_ bv0 8) ) (_ bv51 32) (_ bv0 8) ) (_ bv52 32) (_ bv0 8) ) (_ bv53 32) (_ bv0 8) ) (_ bv54 32) (_ bv0 8) ) (_ bv55 32) (_ bv0 8) ) (_ bv64 32) (_ bv8 8) ) (_ bv65 32) (_ bv0 8) ) (_ bv66 32) (_ bv0 8) ) (_ bv67 32) (_ bv0 8) ) (_ bv68 32) (_ bv0 8) ) (_ bv69 32) (_ bv0 8) ) (_ bv70 32) (_ bv0 8) ) (_ bv71 32) (_ bv0 8) ) ((_ extract 31  0)  (bvadd  (_ bv18446649788683288059 64) ?B10 ) ) ) (concat  (select  (store  (store  (store  (store  (store  (store  (store  (store  (store  (store  (store  (store  (store  (store  (store  (store  A-data-stat (_ bv48 32) (_ bv64 8) ) (_ bv49 32) (_ bv6 8) ) (_ bv50 32) (_ bv0 8) ) (_ bv51 32) (_ bv0 8) ) (_ bv52 32) (_ bv0 8) ) (_ bv53 32) (_ bv0 8) ) (_ bv54 32) (_ bv0 8) ) (_ bv55 32) (_ bv0 8) ) (_ bv64 32) (_ bv8 8) ) (_ bv65 32) (_ bv0 8) ) (_ bv66 32) (_ bv0 8) ) (_ bv67 32) (_ bv0 8) ) (_ bv68 32) (_ bv0 8) ) (_ bv69 32) (_ bv0 8) ) (_ bv70 32) (_ bv0 8) ) (_ bv71 32) (_ bv0 8) ) ((_ extract 31  0)  (bvadd  (_ bv18446649788683288058 64) ?B10 ) ) ) (concat  (select  (store  (store  (store  (store  (store  (store  (store  (store  (store  (store  (store  (store  (store  (store  (store  (store  A-data-stat (_ bv48 32) (_ bv64 8) ) (_ bv49 32) (_ bv6 8) ) (_ bv50 32) (_ bv0 8) ) (_ bv51 32) (_ bv0 8) ) (_ bv52 32) (_ bv0 8) ) (_ bv53 32) (_ bv0 8) ) (_ bv54 32) (_ bv0 8) ) (_ bv55 32) (_ bv0 8) ) (_ bv64 32) (_ bv8 8) ) (_ bv65 32) (_ bv0 8) ) (_ bv66 32) (_ bv0 8) ) (_ bv67 32) (_ bv0 8) ) (_ bv68 32) (_ bv0 8) ) (_ bv69 32) (_ bv0 8) ) (_ bv70 32) (_ bv0 8) ) (_ bv71 32) (_ bv0 8) ) ((_ extract 31  0)  (bvadd  (_ bv18446649788683288057 64) ?B10 ) ) ) (select  (store  (store  (store  (store  (store  (store  (store  (store  (store  (store  (store  (store  (store  (store  (store  (store  A-data-stat (_ bv48 32) (_ bv64 8) ) (_ bv49 32) (_ bv6 8) ) (_ bv50 32) (_ bv0 8) ) (_ bv51 32) (_ bv0 8) ) (_ bv52 32) (_ bv0 8) ) (_ bv53 32) (_ bv0 8) ) (_ bv54 32) (_ bv0 8) ) (_ bv55 32) (_ bv0 8) ) (_ bv64 32) (_ bv8 8) ) (_ bv65 32) (_ bv0 8) ) (_ bv66 32) (_ bv0 8) ) (_ bv67 32) (_ bv0 8) ) (_ bv68 32) (_ bv0 8) ) (_ bv69 32) (_ bv0 8) ) (_ bv70 32) (_ bv0 8) ) (_ bv71 32) (_ bv0 8) ) ((_ extract 31  0)  (bvadd  (_ bv18446649788683288056 64) ?B10 ) ) ) ) ) ) ) ) ) ) ) (?B11 (bvurem  (_ bv8 64) ?B8 ) ) (?B13 (bvand  (concat  (select  (store  (store  (store  (store  (store  (store  (store  (store  (store  (store  (store  (store  (store  (store  (store  (store  A-data-stat (_ bv48 32) (_ bv64 8) ) (_ bv49 32) (_ bv6 8) ) (_ bv50 32) (_ bv0 8) ) (_ bv51 32) (_ bv0 8) ) (_ bv52 32) (_ bv0 8) ) (_ bv53 32) (_ bv0 8) ) (_ bv54 32) (_ bv0 8) ) (_ bv55 32) (_ bv0 8) ) (_ bv64 32) (_ bv8 8) ) (_ bv65 32) (_ bv0 8) ) (_ bv66 32) (_ bv0 8) ) (_ bv67 32) (_ bv0 8) ) (_ bv68 32) (_ bv0 8) ) (_ bv69 32) (_ bv0 8) ) (_ bv70 32) (_ bv0 8) ) (_ bv71 32) (_ bv0 8) ) ((_ extract 31  0)  (bvadd  (_ bv18446649788683288027 64) ?B10 ) ) ) (concat  (select  (store  (store  (store  (store  (store  (store  (store  (store  (store  (store  (store  (store  (store  (store  (store  (store  A-data-stat (_ bv48 32) (_ bv64 8) ) (_ bv49 32) (_ bv6 8) ) (_ bv50 32) (_ bv0 8) ) (_ bv51 32) (_ bv0 8) ) (_ bv52 32) (_ bv0 8) ) (_ bv53 32) (_ bv0 8) ) (_ bv54 32) (_ bv0 8) ) (_ bv55 32) (_ bv0 8) ) (_ bv64 32) (_ bv8 8) ) (_ bv65 32) (_ bv0 8) ) (_ bv66 32) (_ bv0 8) ) (_ bv67 32) (_ bv0 8) ) (_ bv68 32) (_ bv0 8) ) (_ bv69 32) (_ bv0 8) ) (_ bv70 32) (_ bv0 8) ) (_ bv71 32) (_ bv0 8) ) ((_ extract 31  0)  (bvadd  (_ bv18446649788683288026 64) ?B10 ) ) ) (concat  (select  (store  (store  (store  (store  (store  (store  (store  (store  (store  (store  (store  (store  (store  (store  (store  (store  A-data-stat (_ bv48 32) (_ bv64 8) ) (_ bv49 32) (_ bv6 8) ) (_ bv50 32) (_ bv0 8) ) (_ bv51 32) (_ bv0 8) ) (_ bv52 32) (_ bv0 8) ) (_ bv53 32) (_ bv0 8) ) (_ bv54 32) (_ bv0 8) ) (_ bv55 32) (_ bv0 8) ) (_ bv64 32) (_ bv8 8) ) (_ bv65 32) (_ bv0 8) ) (_ bv66 32) (_ bv0 8) ) (_ bv67 32) (_ bv0 8) ) (_ bv68 32) (_ bv0 8) ) (_ bv69 32) (_ bv0 8) ) (_ bv70 32) (_ bv0 8) ) (_ bv71 32) (_ bv0 8) ) ((_ extract 31  0)  (bvadd  (_ bv18446649788683288025 64) ?B10 ) ) ) (select  (store  (store  (store  (store  (store  (store  (store  (store  (store  (store  (store  (store  (store  (store  (store  (store  A-data-stat (_ bv48 32) (_ bv64 8) ) (_ bv49 32) (_ bv6 8) ) (_ bv50 32) (_ bv0 8) ) (_ bv51 32) (_ bv0 8) ) (_ bv52 32) (_ bv0 8) ) (_ bv53 32) (_ bv0 8) ) (_ bv54 32) (_ bv0 8) ) (_ bv55 32) (_ bv0 8) ) (_ bv64 32) (_ bv8 8) ) (_ bv65 32) (_ bv0 8) ) (_ bv66 32) (_ bv0 8) ) (_ bv67 32) (_ bv0 8) ) (_ bv68 32) (_ bv0 8) ) (_ bv69 32) (_ bv0 8) ) (_ bv70 32) (_ bv0 8) ) (_ bv71 32) (_ bv0 8) ) ((_ extract 31  0)  (bvadd  (_ bv18446649788683288024 64) ?B10 ) ) ) ) ) ) (_ bv61440 32) ) ) ) (let ( (?B15 (bvurem  ?B12 ?B8 ) ) (?B16 (bvurem  (_ bv8 64) ?B12 ) ) (?B14 (bvurem  ?B8 ?B11 ) ) ) (let ( (?B18 (bvmul  (bvudiv  ?B12 ?B15 ) ?B8 ) ) (?B17 (bvurem  ?B11 ?B14 ) ) (?B19 (bvurem  ?B12 ?B16 ) ) ) (let ( (?B20 (bvurem  (_ bv8 64) ?B18 ) ) ) (and  (and  (and  (and  (and  (and  (and  (and  (and  (and  (and  (and  (and  (and  (and  (and  (and  (and  (and  (and  (and  (and  (and  (=  (_ bv0 64) (bvurem  ?B20 (bvurem  ?B18 ?B20 ) ) ) (=  false (=  (_ bv0 64) (bvand  ?B2 (_ bv2147483647 64) ) ) ) ) (bvult  (concat  (select  A-data-stat (_ bv63 32) ) (concat  (select  A-data-stat (_ bv62 32) ) (concat  (select  A-data-stat (_ bv61 32) ) (concat  (select  A-data-stat (_ bv60 32) ) (concat  (select  A-data-stat (_ bv59 32) ) (concat  (select  A-data-stat (_ bv58 32) ) (concat  (select  A-data-stat (_ bv57 32) ) (select  A-data-stat (_ bv56 32) ) ) ) ) ) ) ) ) (_ bv65536 64) ) ) (=  false (=  (_ bv0 64) (bvand  ?B1 (_ bv2147483647 64) ) ) ) ) (bvult  (concat  (select  B-data-stat (_ bv63 32) ) (concat  (select  B-data-stat (_ bv62 32) ) (concat  (select  B-data-stat (_ bv61 32) ) (concat  (select  B-data-stat (_ bv60 32) ) (concat  (select  B-data-stat (_ bv59 32) ) (concat  (select  B-data-stat (_ bv58 32) ) (concat  (select  B-data-stat (_ bv57 32) ) (select  B-data-stat (_ bv56 32) ) ) ) ) ) ) ) ) (_ bv65536 64) ) ) (=  false (xor  (=  (_ bv16384 32) ?B13 ) (=  (_ bv16384 32) ?B9 ) ) ) ) (=  false (=  (concat  (select  (store  (store  (store  (store  (store  (store  (store  (store  (store  (store  (store  (store  (store  (store  (store  (store  A-data-stat (_ bv48 32) (_ bv64 8) ) (_ bv49 32) (_ bv6 8) ) (_ bv50 32) (_ bv0 8) ) (_ bv51 32) (_ bv0 8) ) (_ bv52 32) (_ bv0 8) ) (_ bv53 32) (_ bv0 8) ) (_ bv54 32) (_ bv0 8) ) (_ bv55 32) (_ bv0 8) ) (_ bv64 32) (_ bv8 8) ) (_ bv65 32) (_ bv0 8) ) (_ bv66 32) (_ bv0 8) ) (_ bv67 32) (_ bv0 8) ) (_ bv68 32) (_ bv0 8) ) (_ bv69 32) (_ bv0 8) ) (_ bv70 32) (_ bv0 8) ) (_ bv71 32) (_ bv0 8) ) ((_ extract 31  0)  (bvadd  (_ bv18446649788683288015 64) ?B10 ) ) ) (concat  (select  (store  (store  (store  (store  (store  (store  (store  (store  (store  (store  (store  (store  (store  (store  (store  (store  A-data-stat (_ bv48 32) (_ bv64 8) ) (_ bv49 32) (_ bv6 8) ) (_ bv50 32) (_ bv0 8) ) (_ bv51 32) (_ bv0 8) ) (_ bv52 32) (_ bv0 8) ) (_ bv53 32) (_ bv0 8) ) (_ bv54 32) (_ bv0 8) ) (_ bv55 32) (_ bv0 8) ) (_ bv64 32) (_ bv8 8) ) (_ bv65 32) (_ bv0 8) ) (_ bv66 32) (_ bv0 8) ) (_ bv67 32) (_ bv0 8) ) (_ bv68 32) (_ bv0 8) ) (_ bv69 32) (_ bv0 8) ) (_ bv70 32) (_ bv0 8) ) (_ bv71 32) (_ bv0 8) ) ((_ extract 31  0)  (bvadd  (_ bv18446649788683288014 64) ?B10 ) ) ) (concat  (select  (store  (store  (store  (store  (store  (store  (store  (store  (store  (store  (store  (store  (store  (store  (store  (store  A-data-stat (_ bv48 32) (_ bv64 8) ) (_ bv49 32) (_ bv6 8) ) (_ bv50 32) (_ bv0 8) ) (_ bv51 32) (_ bv0 8) ) (_ bv52 32) (_ bv0 8) ) (_ bv53 32) (_ bv0 8) ) (_ bv54 32) (_ bv0 8) ) (_ bv55 32) (_ bv0 8) ) (_ bv64 32) (_ bv8 8) ) (_ bv65 32) (_ bv0 8) ) (_ bv66 32) (_ bv0 8) ) (_ bv67 32) (_ bv0 8) ) (_ bv68 32) (_ bv0 8) ) (_ bv69 32) (_ bv0 8) ) (_ bv70 32) (_ bv0 8) ) (_ bv71 32) (_ bv0 8) ) ((_ extract 31  0)  (bvadd  (_ bv18446649788683288013 64) ?B10 ) ) ) (concat  (select  (store  (store  (store  (store  (store  (store  (store  (store  (store  (store  (store  (store  (store  (store  (store  (store  A-data-stat (_ bv48 32) (_ bv64 8) ) (_ bv49 32) (_ bv6 8) ) (_ bv50 32) (_ bv0 8) ) (_ bv51 32) (_ bv0 8) ) (_ bv52 32) (_ bv0 8) ) (_ bv53 32) (_ bv0 8) ) (_ bv54 32) (_ bv0 8) ) (_ bv55 32) (_ bv0 8) ) (_ bv64 32) (_ bv8 8) ) (_ bv65 32) (_ bv0 8) ) (_ bv66 32) (_ bv0 8) ) (_ bv67 32) (_ bv0 8) ) (_ bv68 32) (_ bv0 8) ) (_ bv69 32) (_ bv0 8) ) (_ bv70 32) (_ bv0 8) ) (_ bv71 32) (_ bv0 8) ) ((_ extract 31  0)  (bvadd  (_ bv18446649788683288012 64) ?B10 ) ) ) (concat  (select  (store  (store  (store  (store  (store  (store  (store  (store  (store  (store  (store  (store  (store  (store  (store  (store  A-data-stat (_ bv48 32) (_ bv64 8) ) (_ bv49 32) (_ bv6 8) ) (_ bv50 32) (_ bv0 8) ) (_ bv51 32) (_ bv0 8) ) (_ bv52 32) (_ bv0 8) ) (_ bv53 32) (_ bv0 8) ) (_ bv54 32) (_ bv0 8) ) (_ bv55 32) (_ bv0 8) ) (_ bv64 32) (_ bv8 8) ) (_ bv65 32) (_ bv0 8) ) (_ bv66 32) (_ bv0 8) ) (_ bv67 32) (_ bv0 8) ) (_ bv68 32) (_ bv0 8) ) (_ bv69 32) (_ bv0 8) ) (_ bv70 32) (_ bv0 8) ) (_ bv71 32) (_ bv0 8) ) ((_ extract 31  0)  (bvadd  (_ bv18446649788683288011 64) ?B10 ) ) ) (concat  (select  (store  (store  (store  (store  (store  (store  (store  (store  (store  (store  (store  (store  (store  (store  (store  (store  A-data-stat (_ bv48 32) (_ bv64 8) ) (_ bv49 32) (_ bv6 8) ) (_ bv50 32) (_ bv0 8) ) (_ bv51 32) (_ bv0 8) ) (_ bv52 32) (_ bv0 8) ) (_ bv53 32) (_ bv0 8) ) (_ bv54 32) (_ bv0 8) ) (_ bv55 32) (_ bv0 8) ) (_ bv64 32) (_ bv8 8) ) (_ bv65 32) (_ bv0 8) ) (_ bv66 32) (_ bv0 8) ) (_ bv67 32) (_ bv0 8) ) (_ bv68 32) (_ bv0 8) ) (_ bv69 32) (_ bv0 8) ) (_ bv70 32) (_ bv0 8) ) (_ bv71 32) (_ bv0 8) ) ((_ extract 31  0)  (bvadd  (_ bv18446649788683288010 64) ?B10 ) ) ) (concat  (select  (store  (store  (store  (store  (store  (store  (store  (store  (store  (store  (store  (store  (store  (store  (store  (store  A-data-stat (_ bv48 32) (_ bv64 8) ) (_ bv49 32) (_ bv6 8) ) (_ bv50 32) (_ bv0 8) ) (_ bv51 32) (_ bv0 8) ) (_ bv52 32) (_ bv0 8) ) (_ bv53 32) (_ bv0 8) ) (_ bv54 32) (_ bv0 8) ) (_ bv55 32) (_ bv0 8) ) (_ bv64 32) (_ bv8 8) ) (_ bv65 32) (_ bv0 8) ) (_ bv66 32) (_ bv0 8) ) (_ bv67 32) (_ bv0 8) ) (_ bv68 32) (_ bv0 8) ) (_ bv69 32) (_ bv0 8) ) (_ bv70 32) (_ bv0 8) ) (_ bv71 32) (_ bv0 8) ) ((_ extract 31  0)  (bvadd  (_ bv18446649788683288009 64) ?B10 ) ) ) (select  (store  (store  (store  (store  (store  (store  (store  (store  (store  (store  (store  (store  (store  (store  (store  (store  A-data-stat (_ bv48 32) (_ bv64 8) ) (_ bv49 32) (_ bv6 8) ) (_ bv50 32) (_ bv0 8) ) (_ bv51 32) (_ bv0 8) ) (_ bv52 32) (_ bv0 8) ) (_ bv53 32) (_ bv0 8) ) (_ bv54 32) (_ bv0 8) ) (_ bv55 32) (_ bv0 8) ) (_ bv64 32) (_ bv8 8) ) (_ bv65 32) (_ bv0 8) ) (_ bv66 32) (_ bv0 8) ) (_ bv67 32) (_ bv0 8) ) (_ bv68 32) (_ bv0 8) ) (_ bv69 32) (_ bv0 8) ) (_ bv70 32) (_ bv0 8) ) (_ bv71 32) (_ bv0 8) ) ((_ extract 31  0)  (bvadd  (_ bv18446649788683288008 64) ?B10 ) ) ) ) ) ) ) ) ) ) (concat  (select  (store  (store  (store  (store  (store  (store  (store  (store  (store  (store  (store  (store  (store  (store  (store  (store  B-data-stat (_ bv48 32) (_ bv64 8) ) (_ bv49 32) (_ bv6 8) ) (_ bv50 32) (_ bv0 8) ) (_ bv51 32) (_ bv0 8) ) (_ bv52 32) (_ bv0 8) ) (_ bv53 32) (_ bv0 8) ) (_ bv54 32) (_ bv0 8) ) (_ bv55 32) (_ bv0 8) ) (_ bv64 32) (_ bv8 8) ) (_ bv65 32) (_ bv0 8) ) (_ bv66 32) (_ bv0 8) ) (_ bv67 32) (_ bv0 8) ) (_ bv68 32) (_ bv0 8) ) (_ bv69 32) (_ bv0 8) ) (_ bv70 32) (_ bv0 8) ) (_ bv71 32) (_ bv0 8) ) ((_ extract 31  0)  (bvadd  (_ bv18446649788680513647 64) ?B5 ) ) ) (concat  (select  (store  (store  (store  (store  (store  (store  (store  (store  (store  (store  (store  (store  (store  (store  (store  (store  B-data-stat (_ bv48 32) (_ bv64 8) ) (_ bv49 32) (_ bv6 8) ) (_ bv50 32) (_ bv0 8) ) (_ bv51 32) (_ bv0 8) ) (_ bv52 32) (_ bv0 8) ) (_ bv53 32) (_ bv0 8) ) (_ bv54 32) (_ bv0 8) ) (_ bv55 32) (_ bv0 8) ) (_ bv64 32) (_ bv8 8) ) (_ bv65 32) (_ bv0 8) ) (_ bv66 32) (_ bv0 8) ) (_ bv67 32) (_ bv0 8) ) (_ bv68 32) (_ bv0 8) ) (_ bv69 32) (_ bv0 8) ) (_ bv70 32) (_ bv0 8) ) (_ bv71 32) (_ bv0 8) ) ((_ extract 31  0)  (bvadd  (_ bv18446649788680513646 64) ?B5 ) ) ) (concat  (select  (store  (store  (store  (store  (store  (store  (store  (store  (store  (store  (store  (store  (store  (store  (store  (store  B-data-stat (_ bv48 32) (_ bv64 8) ) (_ bv49 32) (_ bv6 8) ) (_ bv50 32) (_ bv0 8) ) (_ bv51 32) (_ bv0 8) ) (_ bv52 32) (_ bv0 8) ) (_ bv53 32) (_ bv0 8) ) (_ bv54 32) (_ bv0 8) ) (_ bv55 32) (_ bv0 8) ) (_ bv64 32) (_ bv8 8) ) (_ bv65 32) (_ bv0 8) ) (_ bv66 32) (_ bv0 8) ) (_ bv67 32) (_ bv0 8) ) (_ bv68 32) (_ bv0 8) ) (_ bv69 32) (_ bv0 8) ) (_ bv70 32) (_ bv0 8) ) (_ bv71 32) (_ bv0 8) ) ((_ extract 31  0)  (bvadd  (_ bv18446649788680513645 64) ?B5 ) ) ) (concat  (select  (store  (store  (store  (store  (store  (store  (store  (store  (store  (store  (store  (store  (store  (store  (store  (store  B-data-stat (_ bv48 32) (_ bv64 8) ) (_ bv49 32) (_ bv6 8) ) (_ bv50 32) (_ bv0 8) ) (_ bv51 32) (_ bv0 8) ) (_ bv52 32) (_ bv0 8) ) (_ bv53 32) (_ bv0 8) ) (_ bv54 32) (_ bv0 8) ) (_ bv55 32) (_ bv0 8) ) (_ bv64 32) (_ bv8 8) ) (_ bv65 32) (_ bv0 8) ) (_ bv66 32) (_ bv0 8) ) (_ bv67 32) (_ bv0 8) ) (_ bv68 32) (_ bv0 8) ) (_ bv69 32) (_ bv0 8) ) (_ bv70 32) (_ bv0 8) ) (_ bv71 32) (_ bv0 8) ) ((_ extract 31  0)  (bvadd  (_ bv18446649788680513644 64) ?B5 ) ) ) (concat  (select  (store  (store  (store  (store  (store  (store  (store  (store  (store  (store  (store  (store  (store  (store  (store  (store  B-data-stat (_ bv48 32) (_ bv64 8) ) (_ bv49 32) (_ bv6 8) ) (_ bv50 32) (_ bv0 8) ) (_ bv51 32) (_ bv0 8) ) (_ bv52 32) (_ bv0 8) ) (_ bv53 32) (_ bv0 8) ) (_ bv54 32) (_ bv0 8) ) (_ bv55 32) (_ bv0 8) ) (_ bv64 32) (_ bv8 8) ) (_ bv65 32) (_ bv0 8) ) (_ bv66 32) (_ bv0 8) ) (_ bv67 32) (_ bv0 8) ) (_ bv68 32) (_ bv0 8) ) (_ bv69 32) (_ bv0 8) ) (_ bv70 32) (_ bv0 8) ) (_ bv71 32) (_ bv0 8) ) ((_ extract 31  0)  (bvadd  (_ bv18446649788680513643 64) ?B5 ) ) ) (concat  (select  (store  (store  (store  (store  (store  (store  (store  (store  (store  (store  (store  (store  (store  (store  (store  (store  B-data-stat (_ bv48 32) (_ bv64 8) ) (_ bv49 32) (_ bv6 8) ) (_ bv50 32) (_ bv0 8) ) (_ bv51 32) (_ bv0 8) ) (_ bv52 32) (_ bv0 8) ) (_ bv53 32) (_ bv0 8) ) (_ bv54 32) (_ bv0 8) ) (_ bv55 32) (_ bv0 8) ) (_ bv64 32) (_ bv8 8) ) (_ bv65 32) (_ bv0 8) ) (_ bv66 32) (_ bv0 8) ) (_ bv67 32) (_ bv0 8) ) (_ bv68 32) (_ bv0 8) ) (_ bv69 32) (_ bv0 8) ) (_ bv70 32) (_ bv0 8) ) (_ bv71 32) (_ bv0 8) ) ((_ extract 31  0)  (bvadd  (_ bv18446649788680513642 64) ?B5 ) ) ) (concat  (select  (store  (store  (store  (store  (store  (store  (store  (store  (store  (store  (store  (store  (store  (store  (store  (store  B-data-stat (_ bv48 32) (_ bv64 8) ) (_ bv49 32) (_ bv6 8) ) (_ bv50 32) (_ bv0 8) ) (_ bv51 32) (_ bv0 8) ) (_ bv52 32) (_ bv0 8) ) (_ bv53 32) (_ bv0 8) ) (_ bv54 32) (_ bv0 8) ) (_ bv55 32) (_ bv0 8) ) (_ bv64 32) (_ bv8 8) ) (_ bv65 32) (_ bv0 8) ) (_ bv66 32) (_ bv0 8) ) (_ bv67 32) (_ bv0 8) ) (_ bv68 32) (_ bv0 8) ) (_ bv69 32) (_ bv0 8) ) (_ bv70 32) (_ bv0 8) ) (_ bv71 32) (_ bv0 8) ) ((_ extract 31  0)  (bvadd  (_ bv18446649788680513641 64) ?B5 ) ) ) (select  (store  (store  (store  (store  (store  (store  (store  (store  (store  (store  (store  (store  (store  (store  (store  (store  B-data-stat (_ bv48 32) (_ bv64 8) ) (_ bv49 32) (_ bv6 8) ) (_ bv50 32) (_ bv0 8) ) (_ bv51 32) (_ bv0 8) ) (_ bv52 32) (_ bv0 8) ) (_ bv53 32) (_ bv0 8) ) (_ bv54 32) (_ bv0 8) ) (_ bv55 32) (_ bv0 8) ) (_ bv64 32) (_ bv8 8) ) (_ bv65 32) (_ bv0 8) ) (_ bv66 32) (_ bv0 8) ) (_ bv67 32) (_ bv0 8) ) (_ bv68 32) (_ bv0 8) ) (_ bv69 32) (_ bv0 8) ) (_ bv70 32) (_ bv0 8) ) (_ bv71 32) (_ bv0 8) ) ((_ extract 31  0)  (bvadd  (_ bv18446649788680513640 64) ?B5 ) ) ) ) ) ) ) ) ) ) ) ) ) (=  (_ bv8192 16) ((_ extract 15  0)  ?B13 ) ) ) (=  false (=  (_ bv8192 32) ?B9 ) ) ) (=  false (=  (_ bv40960 32) ?B13 ) ) ) (=  false (=  (_ bv40960 32) ?B9 ) ) ) (=  false (=  (_ bv0 64) ?B12 ) ) ) (=  false (=  (_ bv0 64) ?B16 ) ) ) (=  false (=  (_ bv0 64) ?B19 ) ) ) (=  (_ bv0 64) (bvurem  ?B16 ?B19 ) ) ) (=  (_ bv24 64) (bvmul  (bvudiv  (_ bv8 64) ?B19 ) ?B12 ) ) ) (=  (_ bv0 8) (select  A-data ((_ extract 31  0)  (bvadd  (_ bv18446649788685150208 64) (concat  (select  const_arr1 (bvadd  (_ bv7 32) ?B6 ) ) (concat  (select  const_arr1 (bvadd  (_ bv6 32) ?B6 ) ) (concat  (select  const_arr1 (bvadd  (_ bv5 32) ?B6 ) ) (concat  (select  const_arr1 (bvadd  (_ bv4 32) ?B6 ) ) (concat  (select  const_arr1 (bvadd  (_ bv3 32) ?B6 ) ) (concat  (select  const_arr1 (bvadd  (_ bv2 32) ?B6 ) ) (concat  (select  const_arr1 (bvadd  (_ bv1 32) ?B6 ) ) (select  const_arr1 ?B6 ) ) ) ) ) ) ) ) ) ) ) ) ) (=  false (=  (_ bv0 64) ?B8 ) ) ) (=  false (=  (_ bv0 64) ?B11 ) ) ) (=  false (=  (_ bv0 64) ?B14 ) ) ) (=  false (=  (_ bv0 64) ?B17 ) ) ) (=  (_ bv0 64) (bvurem  ?B14 ?B17 ) ) ) (=  (_ bv524280 64) (bvmul  (bvudiv  (_ bv8 64) ?B17 ) ?B8 ) ) ) (=  (_ bv0 64) (bvurem  ?B8 ?B15 ) ) ) ) ) ) ) ) ) ) ) )
(check-sat)
(exit)
;   OK -- Elapsed: 2.840156e+01s
;   Solvable: false
